     Program PHONON v.7.0 starts on 14Nov2022 at 22: 7:21

     K-points division:     npool     =       8

     Waiting for input...
     Reading input from standard input

     Reading xml data from directory:

     /home/theory/phrrpq/qe-7.0/tempdir/mos2.save/

     IMPORTANT: XC functional enforced from input :
     Exchange-correlation= PZ
                           (   1   1   0   0   0   0   0)
     Any further DFT definition will be discarded
     Please, verify this is what you really want

     Using Slab Decomposition

     Reading collected, re-writing distributed wavefunctions
        1 /   1 q-points for this run, from  1 to  1:
       N       xq(1)         xq(2)         xq(3)
       1   0.000000000   0.000000000   0.000000000

     Calculation of q =    0.0000000   0.0000000   0.0000000

     Restart after Phonon calculation

     phonons of mos2 at Gamma

     bravais-lattice index     =            4
     lattice parameter (alat)  =       6.0212  a.u.
     unit-cell volume          =    1135.6588 (a.u.)^3
     number of atoms/cell      =            3
     number of atomic types    =            2
     kinetic-energy cut-off    =      50.0000  Ry
     charge density cut-off    =     450.0000  Ry
     convergence threshold     =      1.0E-12
     beta                      =       0.7000
     number of iterations used =            4
     Exchange-correlation= PZ
                           (   1   1   0   0   0   0   0)

     celldm(1)=    6.02124  celldm(2)=    0.00000  celldm(3)=    6.00701
     celldm(4)=    0.00000  celldm(5)=    0.00000  celldm(6)=    0.00000

     crystal axes: (cart. coord. in units of alat)
               a(1) = (  1.0000  0.0000  0.0000 )
               a(2) = ( -0.5000  0.8660  0.0000 )
               a(3) = (  0.0000  0.0000  6.0070 )

     reciprocal axes: (cart. coord. in units 2 pi/alat)
               b(1) = (  1.0000  0.5774  0.0000 )
               b(2) = (  0.0000  1.1547  0.0000 )
               b(3) = (  0.0000  0.0000  0.1665 )

     Atoms inside the unit cell:

     Cartesian axes

     site n.  atom      mass           positions (alat units)
        1     Mo  95.9500   tau(    1) = (    0.00000    0.00000    3.00351  )
        2     S   32.0600   tau(    2) = (    0.50000    0.28868    3.49627  )
        3     S   32.0600   tau(    3) = (    0.50000    0.28868    2.51074  )

     Computing dynamical matrix for
                    q = (   0.0000000   0.0000000   0.0000000 )

     13 Sym.Ops. (with q -> -q+G )

     G cutoff =  413.2619  ( 183287 G-vectors)     FFT grid: ( 45, 45,250)
     G cutoff =  183.6719  (  54301 G-vectors)  smooth grid: ( 27, 27,180)
     number of k points=    19
                       cart. coord. in units 2pi/alat
        k(    1) = (   0.0000000   0.0000000   0.0000000), wk =   0.0138889
        k(    2) = (   0.0000000   0.0962250   0.0000000), wk =   0.0833333
        k(    3) = (   0.0000000   0.1924501   0.0000000), wk =   0.0833333
        k(    4) = (   0.0000000   0.2886751   0.0000000), wk =   0.0833333
        k(    5) = (   0.0000000   0.3849002   0.0000000), wk =   0.0833333
        k(    6) = (   0.0000000   0.4811252   0.0000000), wk =   0.0833333
        k(    7) = (   0.0000000  -0.5773503   0.0000000), wk =   0.0416667
        k(    8) = (   0.0833333   0.1443376   0.0000000), wk =   0.0833333
        k(    9) = (   0.0833333   0.2405626   0.0000000), wk =   0.1666667
        k(   10) = (   0.0833333   0.3367877   0.0000000), wk =   0.1666667
        k(   11) = (   0.0833333   0.4330127   0.0000000), wk =   0.1666667
        k(   12) = (   0.0833333   0.5292377   0.0000000), wk =   0.1666667
        k(   13) = (   0.1666667   0.2886751   0.0000000), wk =   0.0833333
        k(   14) = (   0.1666667   0.3849002   0.0000000), wk =   0.1666667
        k(   15) = (   0.1666667   0.4811252   0.0000000), wk =   0.1666667
        k(   16) = (   0.1666667   0.5773503   0.0000000), wk =   0.0833333
        k(   17) = (   0.2500000   0.4330127   0.0000000), wk =   0.0833333
        k(   18) = (   0.2500000   0.5292377   0.0000000), wk =   0.1666667
        k(   19) = (   0.3333333   0.5773503   0.0000000), wk =   0.0277778

     PseudoPot. # 1 for Mo read from file:
     /home/theory/phrrpq/sg15_oncv_upf_2020-02-06/Mo_ONCV_PBE-1.2.upf
     MD5 check sum: 2665c9f4159700498d9a5f7573bd8e9f
     Pseudo is Norm-conserving, Zval = 14.0
     Generated using ONCVPSP code by D. R. Hamann
     Using radial grid of  602 points,  6 beta functions with:
                l(1) =   0
                l(2) =   0
                l(3) =   1
                l(4) =   1
                l(5) =   2
                l(6) =   2

     PseudoPot. # 2 for S  read from file:
     /home/theory/phrrpq/sg15_oncv_upf_2020-02-06/S_ONCV_PBE-1.2.upf
     MD5 check sum: f9d020296ee6110346977bfd66d424f6
     Pseudo is Norm-conserving, Zval =  6.0
     Generated using ONCVPSP code by D. R. Hamann
     Using radial grid of  602 points,  4 beta functions with:
                l(1) =   0
                l(2) =   0
                l(3) =   1
                l(4) =   1

     Mode symmetry, D_3h (-62m) point group:

     Electric field:
     Dielectric constant
     Born effective charges in two ways
     Raman tensor
     Electro-optic tensor

     Atomic displacements:
     There are    6 irreducible representations

     Representation     1      1 modes -  Done

[...]

     Representation     6      2 modes -  Done

          Dielectric constant in cartesian axis

          (       5.552218454       0.000000000       0.000000000 )
          (       0.000000000       5.552218454       0.000000000 )
          (       0.000000000       0.000000000       1.367056114 )

          Effective charges (d Force / dE) in cartesian axis without acoustic sum rule applied (asr)

           atom      1   Mo Mean Z*:       -0.76211
      Ex  (       -1.08985        0.00000        0.00000 )
      Ey  (       -0.00000       -1.08985        0.00000 )
      Ez  (        0.00000       -0.00000       -0.10662 )
           atom      2   S  Mean Z*:        0.38268
      Ex  (        0.54633       -0.00000       -0.00000 )
      Ey  (       -0.00000        0.54633       -0.00000 )
      Ez  (        0.00000        0.00000        0.05538 )
           atom      3   S  Mean Z*:        0.38268
      Ex  (        0.54633        0.00000       -0.00000 )
      Ey  (        0.00000        0.54633       -0.00000 )
      Ez  (       -0.00000       -0.00000        0.05538 )

          Effective charges Sum: Mean:        0.00325
              0.00281       -0.00000        0.00000
              0.00000        0.00281        0.00000
             -0.00000       -0.00000        0.00415

          Effective charges (d Force / dE) in cartesian axis with asr applied:
           atom      1   Mo Mean Z*:       -0.76319
      E*x (       -1.09078        0.00000        0.00000 )
      E*y (       -0.00000       -1.09078        0.00000 )
      E*z (        0.00000       -0.00000       -0.10800 )
           atom      2   S  Mean Z*:        0.38159
      E*x (        0.54539       -0.00000       -0.00000 )
      E*y (       -0.00000        0.54539       -0.00000 )
      E*z (        0.00000        0.00000        0.05400 )
           atom      3   S  Mean Z*:        0.38159
      E*x (        0.54539        0.00000        0.00000 )
      E*y (        0.00000        0.54539       -0.00000 )
      E*z (       -0.00000       -0.00000        0.05400 )

              Electro-optic tensor is defined as
            the derivative of the dielectric tensor
              with respect to one electric field
                 units are Rydberg a.u.

            to obtain the static chi^2 multiply by 1/2

            to convert to pm/Volt multiply per 2.7502

          Electro-optic tensor in cartesian axis:

[...]

     Raman tensor (A^2)

     atom #    1    pol.  1
     -0.936546279340E-15      0.177932881399E+02     -0.178423560819E-20
      0.177932881399E+02      0.000000000000E+00      0.360545118041E-20
     -0.178423560819E-20      0.360545118041E-20      0.000000000000E+00
     atom #    1    pol.  2
      0.177932881399E+02      0.561927767604E-14      0.171688151448E-20
      0.561927767604E-14     -0.177932881399E+02      0.366759541684E-20
      0.171688151448E-20      0.366759541684E-20      0.000000000000E+00
     atom #    1    pol.  3
      0.000000000000E+00     -0.131856500312E-18      0.000000000000E+00
     -0.131856500312E-18     -0.507515906331E-19      0.000000000000E+00
      0.000000000000E+00      0.000000000000E+00      0.000000000000E+00
     atom #    2    pol.  1
     -0.234136569835E-15     -0.880826698078E+01      0.163030559115E-01
     -0.880826698078E+01      0.000000000000E+00     -0.548757585551E-17
      0.163030559115E-01     -0.548757585551E-17      0.000000000000E+00
     atom #    2    pol.  2
     -0.880826698078E+01      0.140481941901E-14     -0.685946981939E-17
      0.140481941901E-14      0.880826698078E+01      0.163030559115E-01
     -0.685946981939E-17      0.163030559115E-01     -0.936551980001E-18
     atom #    2    pol.  3
      0.638703592223E+01      0.000000000000E+00      0.000000000000E+00
      0.000000000000E+00      0.638703592223E+01      0.000000000000E+00
      0.000000000000E+00      0.000000000000E+00      0.122327120268E+01
     atom #    3    pol.  1
      0.000000000000E+00     -0.880826698078E+01     -0.163030559115E-01
     -0.880826698078E+01     -0.421445825703E-14      0.109751517110E-16
     -0.163030559115E-01      0.109751517110E-16      0.000000000000E+00
     atom #    3    pol.  2
     -0.880826698078E+01      0.000000000000E+00      0.233221973859E-16
      0.000000000000E+00      0.880826698078E+01     -0.163030559115E-01
      0.233221973859E-16     -0.163030559115E-01     -0.234137995000E-17
     atom #    3    pol.  3
     -0.638703592223E+01      0.000000000000E+00      0.000000000000E+00
      0.000000000000E+00     -0.638703592223E+01      0.000000000000E+00
      0.000000000000E+00      0.000000000000E+00     -0.122327120268E+01

     Number of q in the star =    1
     List of q in the star:
          1   0.000000000   0.000000000   0.000000000

          Dielectric constant in cartesian axis

          (       5.552218454       0.000000000       0.000000000 )
          (       0.000000000       5.552218454       0.000000000 )
          (       0.000000000       0.000000000       1.367056114 )

          Effective charges (d Force / dE) in cartesian axis without acoustic sum rule applied (asr)

           atom      1   Mo Mean Z*:       -0.76211
      Ex  (       -1.08985        0.00000        0.00000 )
      Ey  (       -0.00000       -1.08985        0.00000 )
      Ez  (        0.00000       -0.00000       -0.10662 )
           atom      2   S  Mean Z*:        0.38268
      Ex  (        0.54633       -0.00000       -0.00000 )
      Ey  (       -0.00000        0.54633       -0.00000 )
      Ez  (        0.00000        0.00000        0.05538 )
           atom      3   S  Mean Z*:        0.38268
      Ex  (        0.54633        0.00000       -0.00000 )
      Ey  (        0.00000        0.54633       -0.00000 )
      Ez  (       -0.00000       -0.00000        0.05538 )

          Effective charges Sum: Mean:        0.00325
              0.00281       -0.00000        0.00000
              0.00000        0.00281        0.00000
             -0.00000       -0.00000        0.00415

          Effective charges (d Force / dE) in cartesian axis with asr applied:
           atom      1   Mo Mean Z*:       -0.76319
      E*x (       -1.09078        0.00000        0.00000 )
      E*y (       -0.00000       -1.09078        0.00000 )
      E*z (        0.00000       -0.00000       -0.10800 )
           atom      2   S  Mean Z*:        0.38159
      E*x (        0.54539       -0.00000       -0.00000 )
      E*y (       -0.00000        0.54539       -0.00000 )
      E*z (        0.00000        0.00000        0.05400 )
           atom      3   S  Mean Z*:        0.38159
      E*x (        0.54539        0.00000        0.00000 )
      E*y (        0.00000        0.54539       -0.00000 )
      E*z (       -0.00000       -0.00000        0.05400 )

          Effective charges (d P / du) in cartesian axis

           atom      1   Mo
      Px  (       -1.08848        0.00000       -0.00000 )
      Py  (       -0.00000       -1.08848        0.00000 )
      Pz  (        0.00000       -0.00000       -0.10547 )
           atom      2   S
      Px  (        0.53478        0.00000        0.00000 )
      Py  (        0.00000        0.53478        0.00000 )
      Pz  (        0.00000       -0.00000        0.05771 )
           atom      3   S
      Px  (        0.53478        0.00000        0.00000 )
      Py  (        0.00000        0.53478        0.00000 )
      Pz  (        0.00000       -0.00000        0.05771 )

     Diagonalizing the dynamical matrix

     q = (    0.000000000   0.000000000   0.000000000 )

     freq (    1) =      -2.620707 [THz] =     -87.417378 [cm-1]
     freq (    2) =      -2.620707 [THz] =     -87.417378 [cm-1]
     freq (    3) =       0.859276 [THz] =      28.662363 [cm-1]
     freq (    4) =       8.048046 [THz] =     268.453923 [cm-1]
     freq (    5) =       8.048046 [THz] =     268.453923 [cm-1]
     freq (    6) =      11.096259 [THz] =     370.131357 [cm-1]
     freq (    7) =      11.096259 [THz] =     370.131357 [cm-1]
     freq (    8) =      11.746653 [THz] =     391.826177 [cm-1]
     freq (    9) =      13.608746 [THz] =     453.938900 [cm-1]

     Mode symmetry, D_3h (-62m) point group:

     freq (   1-   2) =        -87.4  [cm-1]   --> E'              I+R
     freq (   3-   3) =         28.7  [cm-1]   --> A''2            I
     freq (   4-   5) =        268.5  [cm-1]   --> E''             R
     freq (   6-   7) =        370.1  [cm-1]   --> E'              I+R
     freq (   8-   8) =        391.8  [cm-1]   --> A'_1            R
     freq (   9-   9) =        453.9  [cm-1]   --> A''2            I

     INITIALIZATION:

     DIELECTRIC CONSTANT AND EFFECTIVE CHARGES:

     RAMAN COEFFICIENTS, THIRD-ORDER CHI:

     DYNAMICAL MATRIX:

      General routines

   This run was terminated on:  22: 7:22  14Nov2022

   JOB DONE.