     Program PHONON v.7.0 starts on 15Nov2022 at 22:42: 8

     K-points division:     npool     =       8

     Waiting for input...
     Reading input from standard input

     Reading xml data from directory:

     /home/theory/phrrpq/qe-7.0/tempdir/wse2.save/

     IMPORTANT: XC functional enforced from input :
     Exchange-correlation= PZ
                           (   1   1   0   0   0   0   0)
     Any further DFT definition will be discarded
     Please, verify this is what you really want

     Using Slab Decomposition

     Reading collected, re-writing distributed wavefunctions
        1 /   1 q-points for this run, from  1 to  1:
       N       xq(1)         xq(2)         xq(3)
       1   0.000000000   0.000000000   0.000000000

     Calculation of q =    0.0000000   0.0000000   0.0000000

     Restart after Phonon calculation

     phonons of wse2 at Gamma

     bravais-lattice index     =            4
     lattice parameter (alat)  =       6.2793  a.u.
     unit-cell volume          =    1249.7451 (a.u.)^3
     number of atoms/cell      =            3
     number of atomic types    =            2
     kinetic-energy cut-off    =      50.0000  Ry
     charge density cut-off    =     450.0000  Ry
     convergence threshold     =      1.0E-12
     beta                      =       0.7000
     number of iterations used =            4
     Exchange-correlation= PZ
                           (   1   1   0   0   0   0   0)

     celldm(1)=    6.27932  celldm(2)=    0.00000  celldm(3)=    5.82844
     celldm(4)=    0.00000  celldm(5)=    0.00000  celldm(6)=    0.00000

     crystal axes: (cart. coord. in units of alat)
               a(1) = (  1.0000  0.0000  0.0000 )
               a(2) = ( -0.5000  0.8660  0.0000 )
               a(3) = (  0.0000  0.0000  5.8284 )

     reciprocal axes: (cart. coord. in units 2 pi/alat)
               b(1) = (  1.0000  0.5774  0.0000 )
               b(2) = (  0.0000  1.1547  0.0000 )
               b(3) = (  0.0000  0.0000  0.1716 )

     Atoms inside the unit cell:

     Cartesian axes

     site n.  atom      mass           positions (alat units)
        1     W  183.8400   tau(    1) = (    0.00000    0.00000    2.91422  )
        2     Se  78.9710   tau(    2) = (    0.50000    0.28868    3.42089  )
        3     Se  78.9710   tau(    3) = (    0.50000    0.28868    2.40755  )

     Computing dynamical matrix for
                    q = (   0.0000000   0.0000000   0.0000000 )

     13 Sym.Ops. (with q -> -q+G )

     G cutoff =  449.4469  ( 201355 G-vectors)     FFT grid: ( 45, 45,250)
     G cutoff =  199.7542  (  59643 G-vectors)  smooth grid: ( 30, 30,180)
     number of k points=    19
                       cart. coord. in units 2pi/alat
        k(    1) = (   0.0000000   0.0000000   0.0000000), wk =   0.0138889
        k(    2) = (   0.0000000   0.0962250   0.0000000), wk =   0.0833333
        k(    3) = (   0.0000000   0.1924501   0.0000000), wk =   0.0833333
        k(    4) = (   0.0000000   0.2886751   0.0000000), wk =   0.0833333
        k(    5) = (   0.0000000   0.3849002   0.0000000), wk =   0.0833333
        k(    6) = (   0.0000000   0.4811252   0.0000000), wk =   0.0833333
        k(    7) = (   0.0000000  -0.5773503   0.0000000), wk =   0.0416667
        k(    8) = (   0.0833333   0.1443376   0.0000000), wk =   0.0833333
        k(    9) = (   0.0833333   0.2405626   0.0000000), wk =   0.1666667
        k(   10) = (   0.0833333   0.3367877   0.0000000), wk =   0.1666667
        k(   11) = (   0.0833333   0.4330127   0.0000000), wk =   0.1666667
        k(   12) = (   0.0833333   0.5292377   0.0000000), wk =   0.1666667
        k(   13) = (   0.1666667   0.2886751   0.0000000), wk =   0.0833333
        k(   14) = (   0.1666667   0.3849002   0.0000000), wk =   0.1666667
        k(   15) = (   0.1666667   0.4811252   0.0000000), wk =   0.1666667
        k(   16) = (   0.1666667   0.5773503   0.0000000), wk =   0.0833333
        k(   17) = (   0.2500000   0.4330127   0.0000000), wk =   0.0833333
        k(   18) = (   0.2500000   0.5292377   0.0000000), wk =   0.1666667
        k(   19) = (   0.3333333   0.5773503   0.0000000), wk =   0.0277778

     PseudoPot. # 1 for W  read from file:
     /home/theory/phrrpq/sg15_oncv_upf_2020-02-06/W_ONCV_PBE-1.2.upf
     MD5 check sum: b6096f31a98cdd82a46cfdcd1f902baf
     Pseudo is Norm-conserving, Zval = 28.0
     Generated using ONCVPSP code by D. R. Hamann
     Using radial grid of  602 points,  8 beta functions with:
                l(1) =   0
                l(2) =   0
                l(3) =   1
                l(4) =   1
                l(5) =   2
                l(6) =   2
                l(7) =   3
                l(8) =   3

     PseudoPot. # 2 for Se read from file:
     /home/theory/phrrpq/sg15_oncv_upf_2020-02-06/Se_ONCV_PBE-1.2.upf
     MD5 check sum: e78e48a4f5d8ce1f8dc76ec1271f249c
     Pseudo is Norm-conserving, Zval =  6.0
     Generated using ONCVPSP code by D. R. Hamann
     Using radial grid of  602 points,  6 beta functions with:
                l(1) =   0
                l(2) =   0
                l(3) =   1
                l(4) =   1
                l(5) =   2
                l(6) =   2

     Mode symmetry, D_3h (-62m) point group:

     Electric field:
     Dielectric constant
     Born effective charges in two ways
     Raman tensor
     Electro-optic tensor

     Atomic displacements:
     There are    6 irreducible representations

     Representation     1      1 modes -  Done

[...]

     Representation     6      2 modes -  Done

          Dielectric constant in cartesian axis

          (       5.832383747      -0.000000000       0.000000000 )
          (      -0.000000000       5.832383747       0.000000000 )
          (       0.000000000       0.000000000       1.409903461 )

          Effective charges (d Force / dE) in cartesian axis without acoustic sum rule applied (asr)

           atom      1   W  Mean Z*:       -0.93406
      Ex  (       -1.33550        0.00000        0.00000 )
      Ey  (        0.00000       -1.33550        0.00000 )
      Ez  (        0.00000        0.00000       -0.13117 )
           atom      2   Se Mean Z*:        0.46508
      Ex  (        0.66486        0.00000        0.00000 )
      Ey  (        0.00000        0.66486        0.00000 )
      Ez  (        0.00000        0.00000        0.06551 )
           atom      3   Se Mean Z*:        0.46508
      Ex  (        0.66486        0.00000        0.00000 )
      Ey  (        0.00000        0.66486       -0.00000 )
      Ez  (        0.00000       -0.00000        0.06551 )

          Effective charges Sum: Mean:       -0.00389
             -0.00577        0.00000        0.00000
              0.00000       -0.00577        0.00000
              0.00000        0.00000       -0.00014

          Effective charges (d Force / dE) in cartesian axis with asr applied:
           atom      1   W  Mean Z*:       -0.93276
      E*x (       -1.33358        0.00000        0.00000 )
      E*y (        0.00000       -1.33358        0.00000 )
      E*z (        0.00000        0.00000       -0.13112 )
           atom      2   Se Mean Z*:        0.46638
      E*x (        0.66679       -0.00000       -0.00000 )
      E*y (       -0.00000        0.66679        0.00000 )
      E*z (        0.00000        0.00000        0.06556 )
           atom      3   Se Mean Z*:        0.46638
      E*x (        0.66679       -0.00000       -0.00000 )
      E*y (        0.00000        0.66679       -0.00000 )
      E*z (        0.00000       -0.00000        0.06556 )

              Electro-optic tensor is defined as
            the derivative of the dielectric tensor
              with respect to one electric field
                 units are Rydberg a.u.

            to obtain the static chi^2 multiply by 1/2

            to convert to pm/Volt multiply per 2.7502

          Electro-optic tensor in cartesian axis:

[...]

     Raman tensor (A^2)

     atom #    1    pol.  1
     -0.309189017842E-14      0.113074724518E+02      0.674544233675E-21
      0.113074724518E+02     -0.309189017842E-14      0.272613806425E-20
      0.674544233675E-21      0.272613806425E-20      0.000000000000E+00
     atom #    1    pol.  2
      0.113074724518E+02     -0.772972544606E-14      0.116834488468E-20
     -0.772972544606E-14     -0.113074724518E+02      0.202363270103E-20
      0.116834488468E-20      0.202363270103E-20      0.875804725316E-17
     atom #    1    pol.  3
      0.000000000000E+00      0.000000000000E+00      0.000000000000E+00
      0.000000000000E+00      0.000000000000E+00      0.000000000000E+00
      0.000000000000E+00      0.000000000000E+00      0.000000000000E+00
     atom #    2    pol.  1
      0.257657514869E-15     -0.560518276733E+01      0.257616458167E+00
     -0.560518276733E+01      0.154594508921E-14     -0.724661760568E-16
      0.257616458167E+00     -0.724661760568E-16      0.000000000000E+00
     atom #    2    pol.  2
     -0.560518276733E+01      0.000000000000E+00     -0.966215680758E-16
      0.000000000000E+00      0.560518276733E+01      0.257616458167E+00
     -0.966215680758E-16      0.257616458167E+00      0.547377953322E-18
     atom #    2    pol.  3
      0.125546870068E+02     -0.154594508921E-14      0.000000000000E+00
     -0.154594508921E-14      0.125546870068E+02      0.000000000000E+00
      0.000000000000E+00      0.000000000000E+00      0.145400946632E+01
     atom #    3    pol.  1
      0.515315029737E-15     -0.560518276733E+01     -0.257616458167E+00
     -0.560518276733E+01      0.154594508921E-14      0.241553920189E-16
     -0.257616458167E+00      0.241553920189E-16      0.000000000000E+00
     atom #    3    pol.  2
     -0.560518276733E+01      0.000000000000E+00      0.483107840379E-16
      0.000000000000E+00      0.560518276733E+01     -0.257616458167E+00
      0.483107840379E-16     -0.257616458167E+00     -0.410533464992E-18
     atom #    3    pol.  3
     -0.125546870068E+02      0.154594508921E-14      0.000000000000E+00
      0.154594508921E-14     -0.125546870068E+02      0.000000000000E+00
      0.000000000000E+00      0.000000000000E+00     -0.145400946632E+01

     Number of q in the star =    1
     List of q in the star:
          1   0.000000000   0.000000000   0.000000000

          Dielectric constant in cartesian axis

          (       5.832383747      -0.000000000       0.000000000 )
          (      -0.000000000       5.832383747       0.000000000 )
          (       0.000000000       0.000000000       1.409903461 )

          Effective charges (d Force / dE) in cartesian axis without acoustic sum rule applied (asr)

           atom      1   W  Mean Z*:       -0.93406
      Ex  (       -1.33550        0.00000        0.00000 )
      Ey  (        0.00000       -1.33550        0.00000 )
      Ez  (        0.00000        0.00000       -0.13117 )
           atom      2   Se Mean Z*:        0.46508
      Ex  (        0.66486        0.00000        0.00000 )
      Ey  (        0.00000        0.66486        0.00000 )
      Ez  (        0.00000        0.00000        0.06551 )
           atom      3   Se Mean Z*:        0.46508
      Ex  (        0.66486        0.00000        0.00000 )
      Ey  (        0.00000        0.66486       -0.00000 )
      Ez  (        0.00000       -0.00000        0.06551 )

          Effective charges Sum: Mean:       -0.00389
             -0.00577        0.00000        0.00000
              0.00000       -0.00577        0.00000
              0.00000        0.00000       -0.00014

          Effective charges (d Force / dE) in cartesian axis with asr applied:
           atom      1   W  Mean Z*:       -0.93276
      E*x (       -1.33358        0.00000        0.00000 )
      E*y (        0.00000       -1.33358        0.00000 )
      E*z (        0.00000        0.00000       -0.13112 )
           atom      2   Se Mean Z*:        0.46638
      E*x (        0.66679       -0.00000       -0.00000 )
      E*y (       -0.00000        0.66679        0.00000 )
      E*z (        0.00000        0.00000        0.06556 )
           atom      3   Se Mean Z*:        0.46638
      E*x (        0.66679       -0.00000       -0.00000 )
      E*y (        0.00000        0.66679       -0.00000 )
      E*z (        0.00000       -0.00000        0.06556 )

          Effective charges (d P / du) in cartesian axis

           atom      1   W
      Px  (       -1.34016       -0.00000       -0.00000 )
      Py  (        0.00000       -1.34016       -0.00000 )
      Pz  (        0.00000       -0.00000       -0.13080 )
           atom      2   Se
      Px  (        0.65767       -0.00000       -0.00000 )
      Py  (       -0.00000        0.65767       -0.00000 )
      Pz  (       -0.00000       -0.00000        0.06419 )
           atom      3   Se
      Px  (        0.65767        0.00000       -0.00000 )
      Py  (        0.00000        0.65767       -0.00000 )
      Pz  (       -0.00000       -0.00000        0.06419 )

     Diagonalizing the dynamical matrix

     q = (    0.000000000   0.000000000   0.000000000 )

     freq (    1) =      -1.805006 [THz] =     -60.208534 [cm-1]
     freq (    2) =      -1.805006 [THz] =     -60.208534 [cm-1]
     freq (    3) =       1.843429 [THz] =      61.490163 [cm-1]
     freq (    4) =       4.901709 [THz] =     163.503426 [cm-1]
     freq (    5) =       4.901709 [THz] =     163.503426 [cm-1]
     freq (    6) =       7.012112 [THz] =     233.898887 [cm-1]
     freq (    7) =       7.176432 [THz] =     239.379991 [cm-1]
     freq (    8) =       7.176432 [THz] =     239.379991 [cm-1]
     freq (    9) =       8.533737 [THz] =     284.654833 [cm-1]

     Mode symmetry, D_3h (-62m) point group:

     freq (   1-   2) =        -60.2  [cm-1]   --> E'              I+R
     freq (   3-   3) =         61.5  [cm-1]   --> A''2            I
     freq (   4-   5) =        163.5  [cm-1]   --> E''             R
     freq (   6-   6) =        233.9  [cm-1]   --> A'_1            R
     freq (   7-   8) =        239.4  [cm-1]   --> E'              I+R
     freq (   9-   9) =        284.7  [cm-1]   --> A''2            I

     INITIALIZATION:

     DIELECTRIC CONSTANT AND EFFECTIVE CHARGES:

     RAMAN COEFFICIENTS, THIRD-ORDER CHI:

     DYNAMICAL MATRIX:

      General routines

   This run was terminated on:  22:42: 9  15Nov2022

   JOB DONE.